c FILE /home/rafael/Documents/HappySet/MIHS/inputs/happygen/output/graph_d_regular_k7_p0.4_v50_20241127_082650.txt
c SOURCE This is a d-regular graph formed for the happy graph colouring problem.
c DESCRIPTION It was generated using the problem generator of Rhyd Lewis
c
c GRAPH STATS
c Seed                             = -254305195
c Number of Nodes                  = 50
c Number of colours k              = 7
c Number of pre-assignments        = 20
c Degree of all vertices           = 6
c Density                          = 0.122449
c 
c The degrees of nodes 1 to 50, respectively, are as follows 
c [6, 6, 6, 6, 6, 6, 6, 6, 6, 6, 6, 6, 6, 6, 6, 6, 6, 6, 6, 6, 6, 6, 6, 6, 6, 6, 
c  6, 6, 6, 6, 6, 6, 6, 6, 6, 6, 6, 6, 6, 6, 6, 6, 6, 6, 6, 6, 6, 6, 6, 6] 
c  
p edge 50 150 7
e 1 2
e 1 14
e 1 16
e 1 31
e 1 45
e 1 50
e 2 20
e 2 25
e 2 34
e 2 37
e 2 39
e 3 15
e 3 19
e 3 20
e 3 22
e 3 33
e 3 41
e 4 10
e 4 11
e 4 30
e 4 41
e 4 47
e 4 48
e 5 27
e 5 28
e 5 29
e 5 31
e 5 38
e 5 49
e 6 15
e 6 24
e 6 32
e 6 33
e 6 42
e 6 48
e 7 8
e 7 9
e 7 40
e 7 47
e 7 49
e 7 50
e 8 17
e 8 33
e 8 35
e 8 48
e 8 50
e 9 18
e 9 23
e 9 29
e 9 41
e 9 49
e 10 12
e 10 23
e 10 28
e 10 35
e 10 46
e 11 14
e 11 29
e 11 35
e 11 41
e 11 48
e 12 16
e 12 30
e 12 32
e 12 38
e 12 47
e 13 20
e 13 25
e 13 29
e 13 32
e 13 40
e 13 49
e 14 18
e 14 34
e 14 36
e 14 45
e 15 16
e 15 23
e 15 27
e 15 46
e 16 24
e 16 26
e 16 34
e 17 21
e 17 23
e 17 30
e 17 40
e 17 42
e 18 24
e 18 27
e 18 32
e 18 34
e 19 24
e 19 31
e 19 37
e 19 39
e 19 50
e 20 30
e 20 43
e 20 47
e 21 29
e 21 30
e 21 38
e 21 42
e 21 49
e 22 25
e 22 26
e 22 37
e 22 40
e 22 43
e 23 36
e 23 44
e 24 26
e 24 49
e 25 29
e 25 38
e 25 40
e 26 31
e 26 44
e 26 46
e 27 45
e 27 48
e 27 50
e 28 34
e 28 35
e 28 36
e 28 41
e 30 35
e 31 43
e 31 48
e 32 36
e 32 44
e 33 37
e 33 44
e 33 47
e 34 37
e 35 44
e 36 42
e 36 43
e 37 45
e 38 43
e 38 46
e 39 41
e 39 44
e 39 45
e 39 50
e 40 43
e 42 45
e 42 46
e 46 47
n 2 3
n 3 3
n 4 2
n 9 1
n 14 4
n 16 7
n 17 3
n 22 3
n 24 7
n 25 3
n 27 2
n 31 2
n 32 4
n 35 5
n 36 4
n 37 3
n 40 3
n 46 6
n 48 2
n 50 2
